c
c Generated WCNF file
c
p wcnf 56 246 23878
23878 11 0
23878 -12 1 0
23878 -12 2 0
23878 12 -1 -2 0
23878 -13 1 0
23878 -13 3 0
23878 13 -1 -3 0
23878 -14 1 0
23878 -14 4 0
23878 14 -1 -4 0
23878 -15 1 0
23878 -15 5 0
23878 15 -1 -5 0
23878 -16 1 0
23878 -16 6 0
23878 16 -1 -6 0
23878 -17 1 0
23878 -17 7 0
23878 17 -1 -7 0
23878 -18 1 0
23878 -18 8 0
23878 18 -1 -8 0
23878 -19 1 0
23878 -19 9 0
23878 19 -1 -9 0
23878 -20 1 0
23878 -20 10 0
23878 20 -1 -10 0
23878 -21 2 0
23878 -21 3 0
23878 21 -2 -3 0
23878 -22 2 0
23878 -22 4 0
23878 22 -2 -4 0
23878 -23 2 0
23878 -23 5 0
23878 23 -2 -5 0
23878 -24 2 0
23878 -24 6 0
23878 24 -2 -6 0
23878 -25 2 0
23878 -25 7 0
23878 25 -2 -7 0
23878 -26 2 0
23878 -26 8 0
23878 26 -2 -8 0
23878 -27 2 0
23878 -27 9 0
23878 27 -2 -9 0
23878 -28 2 0
23878 -28 10 0
23878 28 -2 -10 0
23878 -29 3 0
23878 -29 4 0
23878 29 -3 -4 0
23878 -30 3 0
23878 -30 5 0
23878 30 -3 -5 0
23878 -31 3 0
23878 -31 6 0
23878 31 -3 -6 0
23878 -32 3 0
23878 -32 7 0
23878 32 -3 -7 0
23878 -33 3 0
23878 -33 8 0
23878 33 -3 -8 0
23878 -34 3 0
23878 -34 9 0
23878 34 -3 -9 0
23878 -35 3 0
23878 -35 10 0
23878 35 -3 -10 0
23878 -36 4 0
23878 -36 5 0
23878 36 -4 -5 0
23878 -37 4 0
23878 -37 6 0
23878 37 -4 -6 0
23878 -38 4 0
23878 -38 7 0
23878 38 -4 -7 0
23878 -39 4 0
23878 -39 8 0
23878 39 -4 -8 0
23878 -40 4 0
23878 -40 9 0
23878 40 -4 -9 0
23878 -41 4 0
23878 -41 10 0
23878 41 -4 -10 0
23878 -42 5 0
23878 -42 6 0
23878 42 -5 -6 0
23878 -43 5 0
23878 -43 7 0
23878 43 -5 -7 0
23878 -44 5 0
23878 -44 8 0
23878 44 -5 -8 0
23878 -45 5 0
23878 -45 9 0
23878 45 -5 -9 0
23878 -46 5 0
23878 -46 10 0
23878 46 -5 -10 0
23878 -47 6 0
23878 -47 7 0
23878 47 -6 -7 0
23878 -48 6 0
23878 -48 8 0
23878 48 -6 -8 0
23878 -49 6 0
23878 -49 9 0
23878 49 -6 -9 0
23878 -50 6 0
23878 -50 10 0
23878 50 -6 -10 0
23878 -51 7 0
23878 -51 8 0
23878 51 -7 -8 0
23878 -52 7 0
23878 -52 9 0
23878 52 -7 -9 0
23878 -53 7 0
23878 -53 10 0
23878 53 -7 -10 0
23878 -54 8 0
23878 -54 9 0
23878 54 -8 -9 0
23878 -55 8 0
23878 -55 10 0
23878 55 -8 -10 0
23878 -56 9 0
23878 -56 10 0
23878 56 -9 -10 0
17929 1 0
23868 -1 0
27166 12 0
23868 -12 0
29646 13 0
23868 -13 0
22682 14 0
23868 -14 0
18500 15 0
23868 -15 0
26436 16 0
23868 -16 0
24446 17 0
23868 -17 0
21422 18 0
23868 -18 0
20146 19 0
23868 -19 0
20612 20 0
23868 -20 0
15146 2 0
23868 -2 0
29500 21 0
23868 -21 0
25228 22 0
23868 -22 0
26118 23 0
23868 -23 0
22940 24 0
23868 -24 0
16690 25 0
23868 -25 0
19526 26 0
23868 -26 0
25174 27 0
23868 -27 0
20436 28 0
23868 -28 0
12448 3 0
23868 -3 0
22684 29 0
23868 -29 0
34260 30 0
23868 -30 0
19080 31 0
23868 -31 0
23072 32 0
23868 -32 0
25664 33 0
23868 -33 0
26662 34 0
23868 -34 0
27476 35 0
23868 -35 0
20673 4 0
23868 -4 0
24512 36 0
23868 -36 0
20794 37 0
23868 -37 0
22922 38 0
23868 -38 0
22610 39 0
23868 -39 0
24326 40 0
23868 -40 0
26068 41 0
23868 -41 0
20348 5 0
23868 -5 0
24236 42 0
23868 -42 0
25270 43 0
23868 -43 0
22086 44 0
23868 -44 0
21820 45 0
23868 -45 0
24220 46 0
23868 -46 0
18926 6 0
23868 -6 0
19788 47 0
23868 -47 0
21908 48 0
23868 -48 0
26754 49 0
23868 -49 0
28004 50 0
23868 -50 0
21806 7 0
23868 -7 0
20716 51 0
23868 -51 0
25984 52 0
23868 -52 0
23692 53 0
23868 -53 0
25126 8 0
23868 -8 0
23944 54 0
23868 -54 0
23340 55 0
23868 -55 0
24887 9 0
23868 -9 0
22372 56 0
23868 -56 0
23868 10 0
23868 -10 0
